100 8
499 39
918 849
306 317
128 311
273 721
675 828
798 393
708 363
709 78
774 847
724 645
173 289
553 416
278 633
729 590
794 699
797 768
942 690
257 804
677 397
367 709
812 241
800 694
250 619
70 498
713 128
144 588
652 683
240 531
148 475
744 183
814 707
259 656
721 219
520 373
448 255
361 644
688 874
959 804
175 585
273 903
171 246
182 462
839 832
816 705
569 41
568 413
713 329
518 458
687 601
286 785
306 833
250 582
599 196
281 468
321 760
176 885
784 745
715 196
238 645
432 470
439 465
428 145
871 795
799 804
506 177
177 516
920 843
537 878
153 545
569 751
84 192
505 885
534 430
550 142
279 324
501 332
149 642
467 314
607 318
321 807
833 355
530 97
157 290
64 274
647 289
410 439
191 308
103 361
425 395
404 583
242 373
743 720
289 729
516 297
626 362
327 771
271 771
711 392
299 362
